NAME:  br17
TYPE: ATSP
COMMENT: 17 city problem (Repetto)
DIMENSION:  6
EDGE_WEIGHT_TYPE: EXPLICIT
EDGE_WEIGHT_FORMAT: FULL_MATRIX 
EDGE_WEIGHT_SECTION
 0 20 30 31 28 40
30  0 10 14 20 44
40 20  0 10 22 50
41 24 20  0 14 42
38 30 32 24  0 28
50 54 60 52 38  0